c description: There is a graph of 5 vertices with a 3-clique and a 3-coloring
c generator: CNFgen (0.9.0)
c copyright: (C) 2012-2020 Massimo Lauria <massimo.lauria@uniroma1.it>
c url: https://massimolauria.net/cnfgen
c
p cnf 40 158
-11 -12 0
-11 -13 0
-11 -14 0
-11 -15 0
-12 -13 0
-12 -14 0
-12 -15 0
-13 -14 0
-13 -15 0
-14 -15 0
11 12 13 14 15 0
-16 -17 0
-16 -18 0
-16 -19 0
-16 -20 0
-17 -18 0
-17 -19 0
-17 -20 0
-18 -19 0
-18 -20 0
-19 -20 0
16 17 18 19 20 0
-21 -22 0
-21 -23 0
-21 -24 0
-21 -25 0
-22 -23 0
-22 -24 0
-22 -25 0
-23 -24 0
-23 -25 0
-24 -25 0
21 22 23 24 25 0
-11 -16 0
-11 -21 0
-16 -21 0
-12 -17 0
-12 -22 0
-17 -22 0
-13 -18 0
-13 -23 0
-18 -23 0
-14 -19 0
-14 -24 0
-19 -24 0
-15 -20 0
-15 -25 0
-20 -25 0
1 -11 -17 0
1 -11 -22 0
1 -16 -12 0
1 -16 -22 0
1 -21 -12 0
1 -21 -17 0
2 -11 -18 0
2 -11 -23 0
2 -16 -13 0
2 -16 -23 0
2 -21 -13 0
2 -21 -18 0
3 -11 -19 0
3 -11 -24 0
3 -16 -14 0
3 -16 -24 0
3 -21 -14 0
3 -21 -19 0
4 -11 -20 0
4 -11 -25 0
4 -16 -15 0
4 -16 -25 0
4 -21 -15 0
4 -21 -20 0
5 -12 -18 0
5 -12 -23 0
5 -17 -13 0
5 -17 -23 0
5 -22 -13 0
5 -22 -18 0
6 -12 -19 0
6 -12 -24 0
6 -17 -14 0
6 -17 -24 0
6 -22 -14 0
6 -22 -19 0
7 -12 -20 0
7 -12 -25 0
7 -17 -15 0
7 -17 -25 0
7 -22 -15 0
7 -22 -20 0
8 -13 -19 0
8 -13 -24 0
8 -18 -14 0
8 -18 -24 0
8 -23 -14 0
8 -23 -19 0
9 -13 -20 0
9 -13 -25 0
9 -18 -15 0
9 -18 -25 0
9 -23 -15 0
9 -23 -20 0
10 -14 -20 0
10 -14 -25 0
10 -19 -15 0
10 -19 -25 0
10 -24 -15 0
10 -24 -20 0
-26 -27 0
-26 -28 0
-27 -28 0
26 27 28 0
-29 -30 0
-29 -31 0
-30 -31 0
29 30 31 0
-32 -33 0
-32 -34 0
-33 -34 0
32 33 34 0
-35 -36 0
-35 -37 0
-36 -37 0
35 36 37 0
-38 -39 0
-38 -40 0
-39 -40 0
38 39 40 0
-1 -26 -29 0
-1 -27 -30 0
-1 -28 -31 0
-2 -26 -32 0
-2 -27 -33 0
-2 -28 -34 0
-3 -26 -35 0
-3 -27 -36 0
-3 -28 -37 0
-4 -26 -38 0
-4 -27 -39 0
-4 -28 -40 0
-5 -29 -32 0
-5 -30 -33 0
-5 -31 -34 0
-6 -29 -35 0
-6 -30 -36 0
-6 -31 -37 0
-7 -29 -38 0
-7 -30 -39 0
-7 -31 -40 0
-8 -32 -35 0
-8 -33 -36 0
-8 -34 -37 0
-9 -32 -38 0
-9 -33 -39 0
-9 -34 -40 0
-10 -35 -38 0
-10 -36 -39 0
-10 -37 -40 0